29 30
25 10
9 47
46 22
37 11
35 34
45 1
36 10
6 11
7 35
14 18
6 36
47 48
48 44
9 7
14 34
46 46
18 22
3 17
27 17
16 38
18 40
23 44
16 23
33 12
40 10
16 34
13 39
5 9
1 23
46 49
23 0
33 25
43 13
14 45
42 10
14 28
1 25
29 29
43 5
47 22
31 39
13 1
11 42
42 40
11 16
24 8
22 1
32 18
25 3
